rc2_10_5

VEHICLE
NUMBER   CAPACITY
250     1000

CUSTOMER
CUST NO. XCOORD.  YCOORD.  DEMAND  READY TIME DUE DATE  SERVICE TIME

0   250    250     0     0    7284     0
8 328 458 17 3111 3152 10
4 352 487 27 3617 3718 10
761 245 461 8 2497 2818 10
353 351 481 10 1187 1507 10
409 347 459 25 1826 2129 10
13 239 486 3 5778 6199 10
256 329 456 19 843 1270 10
439 332 459 35 1424 1645 10
893 336 493 20 5941 6123 10
463 318 497 21 3394 3557 10
485 313 493 20 4800 4865 10
656 255 487 19 1527 1776 10
106 230 487 20 4398 4759 10
208 260 472 33 4118 4289 10
378 328 491 21 2634 2912 10
